Cu                                      
   1.00000000000000     
     2.5714646451632008    0.0000000000000000    0.0000000000000000
     1.2857323225816004    2.2269537076448689    0.0000000000000000
     0.0000000000000000    0.0000000000000000    6.3091362179184429
   Cu
     3
Direct
  0.3333333333333357  0.3333333333333357 -0.0000000000000000
  0.6666666666666643  0.6666666666666643  0.3333333333333357
  0.0000000000000000  0.0000000000000000  0.6666666666666643
 
  0.00000000E+00  0.00000000E+00  0.00000000E+00
  0.00000000E+00  0.00000000E+00  0.00000000E+00
  0.00000000E+00  0.00000000E+00  0.00000000E+00
