Cu 
 1.0000000000000000
     2.5526554800834362    0.0000000000000000    0.0000000000000000
     0.0000000000000000    2.5526554800834362    0.0000000000000000
     0.0000000000000000    0.0000000000000000    3.6099999999999999
 Cu 
   2
Cartesian
  0.0000000000000000  0.0000000000000000  0.0000000000000000
  1.2763277400417181  1.2763277400417181  1.8049999999999999
